154 63 149 58 17 84 142 95 85 188 81 182 103 105 114 11 27 46 132 163 113 24 19 141 9 181 20 55 150 94 147 130 162 25 86 112 54 8 101 115 5 39 82 2 176 4 117 144 177 116 91 140 47 143 29 99 1 135 18 191 50 118 34 36 195 61 123 52 59 43 92 3 121 122 70 187 38 72 14 171 136 83 40 146 78 180 12 178 87 164 23 26 179 119 137 80 33 129 174 168 49 0 155 199 125 161 31 104 96 166 93 16 89 139 138 97 169 48 69 152 88 10 167 109 22 41 172 184 21 192 110 102 57 127 28 190 196 198 107 128 35 175 158 74 66 131 6 111 73 197 194 100 189 120 185 148 37 65 7 51 45 145 124 108 60 170 126 75 160 134 71 56 30 77 98 44 165 32 67 13 186 159 64 173 193 79 156 133 68 106 183 157 151 15 62 153 53 90 76 42